Solver command line: ['C:\\Program Files\\IBM\\ILOG\\CPLEX_Studio2211\\cplex\\bin\\x64_win64\\cplex.exe']


Welcome to IBM(R) ILOG(R) CPLEX(R) Interactive Optimizer 22.1.1.0
  with Simplex, Mixed Integer & Barrier Optimizers
5725-A06 5725-A29 5724-Y48 5724-Y49 5724-Y54 5724-Y55 5655-Y21
Copyright IBM Corp. 1988, 2022.  All Rights Reserved.

Type 'help' for a list of available commands.
Type 'help' followed by a command name for more
information on commands.

CPLEX> Logfile 'cplex.log' closed.
Logfile 'C:\Users\wangy\Documents\GitHub\re_optimization\result_site_specific\tmp6ig6x0m1.cplex.log' open.
CPLEX> Problem 'C:\Users\wangy\Documents\GitHub\re_optimization\result_site_specific\tmp3bggywyk.pyomo.lp' read.
Read time = 0.28 sec. (7.29 ticks)
CPLEX> Problem name         : C:\Users\wangy\Documents\GitHub\re_optimization\result_site_specific\tmp3bggywyk.pyomo.lp
Objective sense      : Minimize
Variables            :   52617  [Nneg: 27764,  Free: 8786,  Binary: 7,
                                 Other: 16060]
Objective nonzeros   :      14
Linear constraints   :   73052  [Less: 39437,  Greater: 3,  Equal: 33612]
  Nonzeros           :  181256
  RHS nonzeros       :    4001

Variables            : Min LB: 0.000000         Max UB: 1.000000       
Objective nonzeros   : Min   : 1.000000         Max   : 1.000000       
Linear constraints   :
  Nonzeros           : Min   : 0.002093327      Max   : 100000.0       
  RHS nonzeros       : Min   : 0.001000000      Max   : 1000.000       
CPLEX> Version identifier: 22.1.1.0 | 2022-11-27 | 9160aff4d
Tried aggregator 3 times.
MIP Presolve eliminated 48031 rows and 29052 columns.
Aggregator did 7436 substitutions.
Reduced MIP has 17585 rows, 16129 columns, and 51046 nonzeros.
Reduced MIP has 5 binaries, 0 generals, 0 SOSs, and 0 indicators.
Presolve time = 0.16 sec. (152.40 ticks)
Found incumbent of value 165591.090308 after 0.19 sec. (177.29 ticks)
Probing time = 0.01 sec. (0.97 ticks)
Tried aggregator 1 time.
Detecting symmetries...
Reduced MIP has 17585 rows, 16129 columns, and 51046 nonzeros.
Reduced MIP has 5 binaries, 0 generals, 0 SOSs, and 0 indicators.
Presolve time = 0.03 sec. (30.22 ticks)
Probing time = 0.00 sec. (0.88 ticks)
MIP emphasis: balance optimality and feasibility.
MIP search method: dynamic search.
Parallel mode: deterministic, using up to 16 threads.
Root relaxation solution time = 1.20 sec. (694.43 ticks)

        Nodes                                         Cuts/
   Node  Left     Objective  IInf  Best Integer    Best Bound    ItCnt     Gap

*     0+    0                       165591.0903    -9343.4686           105.64%
*     0+    0                       144607.0423    -9343.4686           106.46%
*     0+    0                         5709.3725    -9343.4686           263.65%
      0     0     5704.2448     1     5709.3725     5704.2448     7214    0.09%
*     0+    0                         5709.3619     5704.2448             0.09%
      0     0        cutoff           5709.3619                   7242    0.00%
Elapsed time = 1.64 sec. (1008.91 ticks, tree = 0.01 MB, solutions = 4)

Root node processing (before b&c):
  Real time             =    1.64 sec. (1011.76 ticks)
Parallel b&c, 16 threads:
  Real time             =    0.00 sec. (0.00 ticks)
  Sync time (average)   =    0.00 sec.
  Wait time (average)   =    0.00 sec.
                          ------------
Total (root+branch&cut) =    1.64 sec. (1011.76 ticks)

Solution pool: 4 solutions saved.

MIP - Integer optimal solution:  Objective =  5.7093618991e+03
Solution time =    1.67 sec.  Iterations = 7242  Nodes = 0
Deterministic time = 1011.91 ticks  (605.57 ticks/sec)

CPLEX> Incumbent solution written to file 'C:\Users\wangy\Documents\GitHub\re_optimization\result_site_specific\tmpqaabwdrf.cplex.sol'.
CPLEX> 
